c FILE /home/rafael/Documents/HappySet/MIHS/inputs/happygen/output/graph_scale_free_k4_p0.2_v100_20241127_083825.txt
c SOURCE This is a scale-free graph formed for the happy graph colouring problem.
c DESCRIPTION It was generated using the problem generator of Rhyd Lewis
c
c GRAPH STATS
c Seed                             = -1077395893
c Number of Nodes                  = 100
c Number of colours k              = 4
c Number of pre-assignments        = 20
c Number of links per new node     = 5
c Density                          = 0.0979798
c 
c The degrees of nodes 1 to 100, respectively, are as follows 
c [41, 32, 31, 30, 29, 23, 22, 21, 19, 17, 17, 16, 16, 15, 15, 14, 14, 14, 14, 13, 12, 12, 12, 12, 12, 11, 
c  11, 11, 11, 10, 9, 9, 9, 9, 9, 9, 9, 8, 8, 8, 8, 8, 8, 8, 8, 8, 8, 8, 7, 7, 7, 
c  7, 6, 6, 6, 6, 6, 6, 6, 6, 6, 6, 6, 6, 6, 6, 6, 6, 6, 6, 6, 6, 6, 6, 6, 6, 
c  5, 5, 5, 5, 5, 5, 5, 5, 5, 5, 5, 5, 5, 5, 5, 5, 5, 5, 5, 5, 5, 5, 5, 5] 
c  
p edge 100 485 4
e 1 2
e 1 3
e 1 4
e 1 5
e 1 6
e 1 9
e 1 12
e 1 13
e 1 14
e 1 17
e 1 18
e 1 20
e 1 21
e 1 29
e 1 30
e 1 32
e 1 36
e 1 38
e 1 40
e 1 42
e 1 45
e 1 47
e 1 48
e 1 53
e 1 54
e 1 57
e 1 58
e 1 62
e 1 66
e 1 67
e 1 68
e 1 69
e 1 70
e 1 74
e 1 77
e 1 80
e 1 81
e 1 84
e 1 85
e 1 90
e 1 94
e 2 3
e 2 4
e 2 5
e 2 6
e 2 7
e 2 8
e 2 9
e 2 12
e 2 15
e 2 16
e 2 21
e 2 23
e 2 26
e 2 29
e 2 33
e 2 35
e 2 37
e 2 38
e 2 44
e 2 50
e 2 51
e 2 55
e 2 60
e 2 63
e 2 65
e 2 71
e 2 75
e 2 79
e 2 90
e 2 96
e 2 99
e 3 4
e 3 5
e 3 6
e 3 7
e 3 10
e 3 11
e 3 12
e 3 13
e 3 14
e 3 18
e 3 23
e 3 24
e 3 29
e 3 32
e 3 35
e 3 38
e 3 41
e 3 42
e 3 44
e 3 49
e 3 52
e 3 54
e 3 56
e 3 58
e 3 59
e 3 65
e 3 76
e 3 77
e 3 87
e 4 5
e 4 6
e 4 7
e 4 11
e 4 13
e 4 17
e 4 18
e 4 19
e 4 23
e 4 26
e 4 27
e 4 30
e 4 31
e 4 32
e 4 34
e 4 35
e 4 40
e 4 46
e 4 51
e 4 53
e 4 54
e 4 59
e 4 63
e 4 85
e 4 91
e 4 95
e 4 100
e 5 6
e 5 7
e 5 8
e 5 9
e 5 11
e 5 12
e 5 15
e 5 18
e 5 19
e 5 21
e 5 25
e 5 26
e 5 27
e 5 28
e 5 43
e 5 45
e 5 53
e 5 63
e 5 67
e 5 76
e 5 77
e 5 79
e 5 81
e 5 93
e 5 100
e 6 7
e 6 13
e 6 14
e 6 16
e 6 17
e 6 21
e 6 24
e 6 26
e 6 32
e 6 40
e 6 51
e 6 61
e 6 66
e 6 78
e 6 82
e 6 86
e 6 94
e 6 97
e 7 8
e 7 9
e 7 10
e 7 12
e 7 13
e 7 14
e 7 27
e 7 30
e 7 37
e 7 38
e 7 41
e 7 58
e 7 66
e 7 69
e 7 84
e 7 89
e 7 94
e 8 10
e 8 13
e 8 14
e 8 17
e 8 19
e 8 28
e 8 30
e 8 41
e 8 42
e 8 53
e 8 63
e 8 68
e 8 70
e 8 75
e 8 76
e 8 83
e 8 87
e 8 96
e 9 21
e 9 22
e 9 23
e 9 36
e 9 39
e 9 44
e 9 52
e 9 56
e 9 63
e 9 78
e 9 81
e 9 83
e 9 89
e 9 92
e 9 93
e 10 11
e 10 12
e 10 14
e 10 16
e 10 24
e 10 39
e 10 47
e 10 49
e 10 56
e 10 60
e 10 76
e 10 93
e 10 97
e 10 98
e 11 14
e 11 18
e 11 22
e 11 23
e 11 27
e 11 39
e 11 40
e 11 47
e 11 54
e 11 64
e 11 72
e 11 74
e 11 97
e 12 14
e 12 15
e 12 16
e 12 27
e 12 31
e 12 39
e 12 44
e 12 49
e 12 64
e 12 92
e 13 25
e 13 26
e 13 29
e 13 39
e 13 41
e 13 49
e 13 65
e 13 73
e 13 90
e 13 100
e 14 15
e 14 16
e 14 19
e 14 21
e 14 65
e 14 71
e 14 90
e 15 17
e 15 21
e 15 22
e 15 40
e 15 41
e 15 43
e 15 48
e 15 54
e 15 55
e 15 78
e 15 91
e 16 22
e 16 28
e 16 38
e 16 59
e 16 61
e 16 66
e 16 72
e 16 73
e 16 77
e 17 22
e 17 31
e 17 32
e 17 46
e 17 50
e 17 52
e 17 66
e 17 88
e 17 99
e 18 31
e 18 33
e 18 44
e 18 50
e 18 55
e 18 58
e 18 61
e 18 79
e 18 98
e 19 20
e 19 25
e 19 26
e 19 28
e 19 49
e 19 51
e 19 55
e 19 62
e 19 88
e 19 98
e 20 24
e 20 27
e 20 35
e 20 46
e 20 48
e 20 51
e 20 52
e 20 54
e 20 71
e 20 76
e 20 83
e 21 25
e 21 28
e 21 87
e 21 95
e 21 100
e 22 24
e 22 30
e 22 34
e 22 67
e 22 69
e 22 82
e 22 87
e 23 33
e 23 45
e 23 59
e 23 73
e 23 75
e 23 81
e 23 99
e 24 25
e 24 26
e 24 33
e 24 57
e 24 69
e 24 90
e 24 91
e 25 34
e 25 43
e 25 50
e 25 57
e 25 74
e 25 79
e 25 97
e 26 42
e 26 53
e 26 61
e 26 82
e 27 29
e 27 43
e 27 68
e 27 85
e 27 94
e 28 34
e 28 37
e 28 56
e 28 57
e 28 62
e 28 67
e 29 37
e 29 46
e 29 57
e 29 72
e 29 78
e 29 82
e 30 42
e 30 47
e 30 71
e 30 80
e 30 99
e 31 33
e 31 38
e 31 64
e 31 89
e 31 96
e 32 50
e 32 72
e 32 80
e 32 95
e 33 36
e 33 55
e 33 70
e 33 86
e 34 35
e 34 40
e 34 52
e 34 92
e 34 96
e 35 36
e 35 60
e 35 84
e 35 96
e 36 43
e 36 60
e 36 70
e 36 74
e 36 79
e 37 47
e 37 56
e 37 68
e 37 80
e 37 89
e 38 45
e 38 65
e 39 43
e 39 45
e 39 64
e 40 62
e 40 68
e 41 48
e 41 78
e 41 82
e 42 77
e 42 83
e 42 93
e 43 56
e 43 87
e 44 58
e 44 74
e 44 99
e 45 59
e 45 60
e 45 73
e 46 49
e 46 64
e 46 71
e 46 72
e 47 69
e 47 70
e 47 91
e 48 63
e 48 91
e 48 95
e 48 98
e 49 92
e 50 80
e 50 88
e 51 73
e 51 86
e 52 92
e 52 100
e 53 67
e 55 61
e 57 81
e 58 86
e 59 89
e 60 84
e 61 62
e 62 88
e 64 88
e 65 85
e 66 97
e 67 83
e 68 86
e 69 93
e 70 95
e 71 84
e 72 85
e 73 75
e 74 75
e 75 94
e 76 98
n 21 2
n 22 2
n 27 3
n 43 3
n 48 3
n 51 2
n 54 4
n 58 1
n 59 1
n 66 3
n 68 3
n 69 2
n 70 1
n 72 1
n 75 3
n 76 4
n 81 1
n 88 2
n 90 1
n 92 4
